set VV := 0 1 2 3 ;
set VS := 0 1 2 3 4 5 6 7 8 9 10 11 12 ;
param cv := 
0 13
1 25
2 19
3 15
;
param cs := 
0 32
1 29
2 27
3 40
4 23
5 26
6 28
7 33
8 33
9 25
10 20
11 34
12 34
;
param bv:	 0 1 2 3 := 
		0 0 12 0 22 
		1 0 0 25 0 
		2 0 0 0 0 
		3 0 0 0 0 
;
param bs:	 0 1 2 3 4 5 6 7 8 9 10 11 12 := 
		0 0 25 24 21 0 0 0 0 0 0 0 0 0 
		1 25 0 0 0 0 0 30 0 0 0 36 0 0 
		2 24 0 0 0 0 0 0 30 0 0 0 0 0 
		3 21 0 0 0 0 0 0 0 0 0 0 0 25 
		4 0 0 0 0 0 0 0 0 20 0 0 0 27 
		5 0 0 0 0 0 0 0 0 0 0 0 0 29 
		6 0 30 0 0 0 0 0 0 0 0 0 0 0 
		7 0 0 30 0 0 0 0 0 0 37 39 0 0 
		8 0 0 0 0 20 0 0 0 0 0 0 0 0 
		9 0 0 0 0 0 0 0 37 0 0 38 0 0 
		10 0 36 0 0 0 0 0 39 0 38 0 0 0 
		11 0 0 0 0 0 0 0 0 0 0 0 0 33 
		12 0 0 0 25 27 29 0 0 0 0 0 33 0 
;
